For VASP. System=       V15Co                               
  5.9562                                          
   1.0000000000000000  0.0000000000000000  0.0000000000000000
   0.0000000000000000  1.0000000000000000  0.0000000000000000
   0.0000000000000000  0.0000000000000000  1.0000000000000000
    15    1
Direct                                                      
   0.2513520000000000  0.2513520000000000  0.2513520000000000
   0.7486480000000000  0.7486480000000000  0.2513520000000000
   0.7486480000000000  0.2513520000000000  0.7486480000000000
   0.2513520000000000  0.7486480000000000  0.7486480000000000
   0.2513520000000000  0.2513520000000000  0.7486480000000000
   0.7486480000000000  0.7486480000000000  0.7486480000000000
   0.2513520000000000  0.7486480000000000  0.2513520000000000
   0.7486480000000000  0.2513520000000000  0.2513520000000000
   0.5000000000000000  0.5000000000000000  0.0000000000000000
   0.0000000000000000  0.5000000000000000  0.5000000000000000
   0.5000000000000000  0.0000000000000000  0.5000000000000000
   0.5000000000000000  0.0000000000000000  0.0000000000000000
   0.0000000000000000  0.5000000000000000  0.0000000000000000
   0.0000000000000000  0.0000000000000000  0.5000000000000000
   0.0000000000000000  0.0000000000000000  0.0000000000000000
   0.5000000000000000  0.5000000000000000  0.5000000000000000
