&SYSTEM
    ibrav = 4,
    celldm(1) = 2.456,
    celldm(2) = 1.0,
    celldm(3) = 2.72638436482,
    celldm(4) = -0.5,
    ntyp = 1,
    nat = 4,
/
ATOMIC_SPECIES
 C   4.0000 ps3
ATOMIC_POSITIONS (crystal)
 C       0.00000000  0.00000000  0.00000000
 C       0.00000000  0.00000000  0.50000000
 C       0.57735027  0.57735027  0.00000000
 C       0.57735027 -0.00000000  0.50000000
