&CONTROL
    calculation = 'scf',
    wf_collect = .true.,
    prefix = 'si',
    pseudo_dir = './',
    verbosity = 'high',
    outdir = '/scratch/markovsk/d3paratest',
/

&SYSTEM
    ibrav = 2,
    celldm(1) = 10.20,
    nat = 2,
    ntyp = 1,
    ecutwfc = 24.0,
/

&ELECTRONS
    mixing_beta = 0.7,
    conv_thr = 1.0d-12,
/

ATOMIC_SPECIES
 Si  28.086  Si.pz-vbc.UPF

ATOMIC_POSITIONS (crystal)
 Si 0.00 0.00 0.00
 Si 0.25 0.25 0.25

K_POINTS (automatic)
 4 4 4  1 1 1

