&inputpp
   prefix='ni',
   outdir='/home/dexity/exports/vinil/content/temp/',
   fildos='/home/dexity/exports/vinil/output/ni.scf.dos.out',
   Emin=5.0,
   Emax=25.0,
   DeltaE=0.1
/
