&INPUT
    fildyn = 'si.dyn',
    zasr = 'crystal',
    flfrc = 'si.fc',
/
