Phonons of MgB2
&inputph
tr2_ph=1.0d-10,
reduce_io = .true.,
amass(1)=24.305,
amass(2)=11.000,
prefix='mgb2',
fildyn='mgb2.dyn',
recover = .true.,
!outdir='directory where large files are written/'
outdir='temp/'
! iverbosity =1,
! lnscf=.true.
! fildvscf='mgb2dvscf',
! elph=.true.,
trans=.true.,
ldisp = .true.,
nq1=6,
nq2=6,
nq3=6
/