&CONTROL
    calculation = 'scf',
    restart_mode = 'from_scratch',
    tprnfor = .true.,
/

&SYSTEM
    ibrav = 2,
    degauss = 0.02,
    smearing = 'gauss',
    occupations = 'smearing',
    ecutwfc = 27.0,
    ecutrho = 300.0,
    celldm(1) = 6.65183548128,
    ntyp = 1,
    nat = 1,
/

&ELECTRONS
    conv_thr = 1.0d-8,
    mixing_beta = 0.7,
/

ATOMIC_SPECIES
 Ni  58.6934 Ni.pbe-nd-rrkjus.UPF

ATOMIC_POSITIONS (crystal)
 Ni      0.00000000  0.00000000  0.00000000

K_POINTS (automatic)
 4 4 4 0 0 0