 &control
    title = ' Ammonia Molecule ',
    calculation = 'cp',
    restart_mode = 'from_scratch',
    ndr = 51,
    ndw = 51,
    nstep  = 100,
    iprint = 10,
    isave  = 100,
    tstress = .TRUE.,
    tprnfor = .TRUE.,
    dt    = 5.0d0,
    etot_conv_thr = 1.d-9,
    ekin_conv_thr = 1.d-4,
    prefix = 'nh3_mol'
    pseudo_dir='./',
    outdir='./tmp/',
 /
 &system
    ibrav = 14,
    celldm(1) = 12.0,
    celldm(2) = 1.0,
    celldm(3) = 1.0,
    celldm(4) = 0.0,
    celldm(5) = 0.0,
    celldm(6) = 0.0,
    nat  = 4,
    ntyp = 2,
    nbnd = 4,
    nelec = 8,
    ecutwfc = 80.0,
    xc_type = 'BLYP'
    nr1b = 10,
    nr2b = 10,
    nr3b = 10,
/
 &electrons
    emass = 400.d0,
    emass_cutoff = 2.5d0,
    electron_dynamics = 'sd',
 /
 &ions
    ion_dynamics = 'damp',
    ion_damping = 0.2,
    ion_radius(1) = 0.8d0,
    ion_radius(2) = 0.8d0,
    ion_velocities = 'zero',
    ion_temperature = 'not_controlled',
    ion_nstepe = 10
 /
 &cell
    cell_dynamics = 'none',
    press = 0.0d0,
 /
ATOMIC_SPECIES
 N 16.0d0 N.BLYP.UPF 4
 H  1.0d0 H.fpmd.UPF 4
ATOMIC_POSITIONS (bohr)
   N     0.0099    0.0099    0.0000
   H     1.9186   -0.2443   -0.2208
   H    -0.2305    1.9214   -0.2144
   H    -0.1795   -0.1807    1.9236
