&CONTROL
    calculation = 'relax',
    restart_mode = 'from_scratch',
    etot_conv_thr = 1.0D-7,
    forc_conv_thr = 1.0D-6,
    tstress = .true.,
    tprnfor = .true.,
    prefix = 'mgalb4',
    pseudo_dir = '/home/markovsk/projects/pslib/espresso/mgb2',
    outdir = '/scratch/markovsk/fe',
/

&SYSTEM
    ibrav = 4,
    celldm(1) = 5.72665262375,
    celldm(3) = 2.20901326488,
    nat = 6,
    ntyp = 3,
    nbnd = 21,
    nspin = 1,
    occupations = 'smearing',
    degauss = 0.025,
    smearing = 'methfessel-paxton',
    ecutwfc = 64.0,
    ecutrho = 256.0,
/

&ELECTRONS
    conv_thr = 1.0d-10,
/

&IONS
    ion_dynamics = 'bfgs',
    pot_extrapolation = 'second_order',
    wfc_extrapolation = 'second_order',
/

ATOMIC_SPECIES
 Al  26.982538 al_1.ncpp
 B   11.000    B.pbe-n-van_ak.UPF
 Mg  24.305    mg.ncpp

ATOMIC_POSITIONS (alat)
 Al      0.00000000  0.00000000  0.00000000
 B       0.50000000  0.28867513  0.51917437
 B       0.00000000  0.57735027  0.51917437
 Mg      0.00000000  0.00000000  1.10450663
 B       0.50000000  0.28867513  1.68983890
 B       0.00000000  0.57735027  1.68983890

K_POINTS (automatic)
 32 32 16 0 0 0

