1.10_eos  Auto-generated by vasp.py     
    1.000000000000000     
     4.1807340000000000    0.0000000000000000    0.0000000000000000
     0.0000000000000000    4.1807340000000000    0.0000000000000000
     0.0000000000000000    0.0000000000000000    4.1807340000000000
   1   1   1   1
Direct
  0.0000000000000000  0.0000000000000000  0.0000000000000000
  0.0000000000000000  0.5161400000000000  0.5161400000000000
  0.5161400000000000  0.0000000000000000  0.5161400000000000
  0.5161400000000000  0.5161400000000000  0.0000000000000000

  0.00000000E+00  0.00000000E+00  0.00000000E+00
  0.00000000E+00  0.00000000E+00  0.00000000E+00
  0.00000000E+00  0.00000000E+00  0.00000000E+00
  0.00000000E+00  0.00000000E+00  0.00000000E+00
