fccAl  Auto-generated by vasp.py
1.0
4.050000 0.000000 0.000000
0.000000 4.050000 0.000000
0.000000 0.000000 4.050000
1 1 1 1 
direct
0.000000 0.000000 0.000000
0.000000 0.123457 0.123457
0.123457 0.000000 0.123457
0.123457 0.123457 0.000000
