1.10_eos  Auto-generated by vasp.py
1.0
4.180734 0.000000 0.000000
0.000000 4.180734 0.000000
0.000000 0.000000 4.180734
1 1 1 1 
direct
0.000000 0.000000 0.000000
0.000000 0.516140 0.516140
0.516140 0.000000 0.516140
0.516140 0.516140 0.000000
