fcc Al:
 4.06
 1.0  0.0  0.0
 0.0  1.0  0.0
 0.0  0.0  1.0   
 4
Direct
0.000000 0.000000 0.000000
0.000000 0.500000 0.500000
0.500000 0.000000 0.500000
0.500000 0.500000 0.000000
