&CONTROL
    !    lkpoint_dir = .false.
    !    verbosity = 'high'
    calculation = 'scf'
    !    wf_collect = .true.
    pseudo_dir = '/home/markovsk/projects/pslib/espresso/mgb2/'
    tprnfor = .true.
    prefix = 'mgb2'
    outdir = '/scratch/markovsk/mgb2'
    tstress = .true.
/
&SYSTEM
    nbnd = 12
    nspin = 1
    ecutwfc = 64
    celldm(4) = -0.5
    occupations = 'smearing'
    celldm(1) = 5.7878685054
    ibrav = 4
    celldm(3) = 1.13684331855
    degauss = 0.025
    smearing = 'methfessel-paxton'
    celldm(2) = 1.0
    nat = 3
    ecutrho = 256
    ntyp = 2
    la2f = .false.
/
&ELECTRONS
    conv_thr = 1.0d-12
/
ATOMIC_SPECIES
 Mg 24.305 mg.ncpp
 B 11.0 B.pbe-n-van_ak.UPF
ATOMIC_POSITIONS ALAT
 Mg     0.  0.  0.  
 B     0.5         0.28867513  0.56842166  
 B      3.34031958e-10   5.77350270e-01   5.68421659e-01  
K_POINTS AUTOMATIC
 32 32 32 0 0 0
